c 3 __LINUXTHREADS_OLD__
c 1 __UCLIBC_HAS_THREADS_NATIVE__
c 2 __UCLIBC_HAS_XLOCALE__
c 6 __UCLIBC_HAS_LOCALE__
c 7 __LINUXTHREADS_NEW__
c 4 __UCLIBC_HAS_THREADS__
c 5 __USE_OLD_VFPRINTF__
p cnf 7 3
1 -5 3 -2 -4 6 -7 1
-5 3 -2 -4 -1 6 1
-5 -3 -2 -4 6 1
